c *********************************
c * Circuit generated by BenCGen
c *
c * CarrySaveAdder_26_26_26_26_27
c *
c * Ports with 1 gate(s): 2
c * Ports with 2 gate(s): 131
c * Total gates: 133
c *********************************
p cnf 211 449
1 133 0
-1 -133 0
1 -132 0
133 -132 0
-1 -133 132 0
132 -105 0
-132 105 0
1 27 -134 0
-1 27 134 0
1 -27 134 0
-1 -27 -134 0
134 53 -79 0
-134 53 79 0
134 -53 79 0
-134 -53 -79 0
53 -135 0
134 -135 0
-53 -134 135 0
27 -136 0
1 -136 0
-27 -1 136 0
-135 106 0
-136 106 0
135 136 -106 0
2 28 -137 0
-2 28 137 0
2 -28 137 0
-2 -28 -137 0
137 54 -80 0
-137 54 80 0
137 -54 80 0
-137 -54 -80 0
54 -138 0
137 -138 0
-54 -137 138 0
28 -139 0
2 -139 0
-28 -2 139 0
-138 107 0
-139 107 0
138 139 -107 0
3 29 -140 0
-3 29 140 0
3 -29 140 0
-3 -29 -140 0
140 55 -81 0
-140 55 81 0
140 -55 81 0
-140 -55 -81 0
55 -141 0
140 -141 0
-55 -140 141 0
29 -142 0
3 -142 0
-29 -3 142 0
-141 108 0
-142 108 0
141 142 -108 0
4 30 -143 0
-4 30 143 0
4 -30 143 0
-4 -30 -143 0
143 56 -82 0
-143 56 82 0
143 -56 82 0
-143 -56 -82 0
56 -144 0
143 -144 0
-56 -143 144 0
30 -145 0
4 -145 0
-30 -4 145 0
-144 109 0
-145 109 0
144 145 -109 0
5 31 -146 0
-5 31 146 0
5 -31 146 0
-5 -31 -146 0
146 57 -83 0
-146 57 83 0
146 -57 83 0
-146 -57 -83 0
57 -147 0
146 -147 0
-57 -146 147 0
31 -148 0
5 -148 0
-31 -5 148 0
-147 110 0
-148 110 0
147 148 -110 0
6 32 -149 0
-6 32 149 0
6 -32 149 0
-6 -32 -149 0
149 58 -84 0
-149 58 84 0
149 -58 84 0
-149 -58 -84 0
58 -150 0
149 -150 0
-58 -149 150 0
32 -151 0
6 -151 0
-32 -6 151 0
-150 111 0
-151 111 0
150 151 -111 0
7 33 -152 0
-7 33 152 0
7 -33 152 0
-7 -33 -152 0
152 59 -85 0
-152 59 85 0
152 -59 85 0
-152 -59 -85 0
59 -153 0
152 -153 0
-59 -152 153 0
33 -154 0
7 -154 0
-33 -7 154 0
-153 112 0
-154 112 0
153 154 -112 0
8 34 -155 0
-8 34 155 0
8 -34 155 0
-8 -34 -155 0
155 60 -86 0
-155 60 86 0
155 -60 86 0
-155 -60 -86 0
60 -156 0
155 -156 0
-60 -155 156 0
34 -157 0
8 -157 0
-34 -8 157 0
-156 113 0
-157 113 0
156 157 -113 0
9 35 -158 0
-9 35 158 0
9 -35 158 0
-9 -35 -158 0
158 61 -87 0
-158 61 87 0
158 -61 87 0
-158 -61 -87 0
61 -159 0
158 -159 0
-61 -158 159 0
35 -160 0
9 -160 0
-35 -9 160 0
-159 114 0
-160 114 0
159 160 -114 0
10 36 -161 0
-10 36 161 0
10 -36 161 0
-10 -36 -161 0
161 62 -88 0
-161 62 88 0
161 -62 88 0
-161 -62 -88 0
62 -162 0
161 -162 0
-62 -161 162 0
36 -163 0
10 -163 0
-36 -10 163 0
-162 115 0
-163 115 0
162 163 -115 0
11 37 -164 0
-11 37 164 0
11 -37 164 0
-11 -37 -164 0
164 63 -89 0
-164 63 89 0
164 -63 89 0
-164 -63 -89 0
63 -165 0
164 -165 0
-63 -164 165 0
37 -166 0
11 -166 0
-37 -11 166 0
-165 116 0
-166 116 0
165 166 -116 0
12 38 -167 0
-12 38 167 0
12 -38 167 0
-12 -38 -167 0
167 64 -90 0
-167 64 90 0
167 -64 90 0
-167 -64 -90 0
64 -168 0
167 -168 0
-64 -167 168 0
38 -169 0
12 -169 0
-38 -12 169 0
-168 117 0
-169 117 0
168 169 -117 0
13 39 -170 0
-13 39 170 0
13 -39 170 0
-13 -39 -170 0
170 65 -91 0
-170 65 91 0
170 -65 91 0
-170 -65 -91 0
65 -171 0
170 -171 0
-65 -170 171 0
39 -172 0
13 -172 0
-39 -13 172 0
-171 118 0
-172 118 0
171 172 -118 0
14 40 -173 0
-14 40 173 0
14 -40 173 0
-14 -40 -173 0
173 66 -92 0
-173 66 92 0
173 -66 92 0
-173 -66 -92 0
66 -174 0
173 -174 0
-66 -173 174 0
40 -175 0
14 -175 0
-40 -14 175 0
-174 119 0
-175 119 0
174 175 -119 0
15 41 -176 0
-15 41 176 0
15 -41 176 0
-15 -41 -176 0
176 67 -93 0
-176 67 93 0
176 -67 93 0
-176 -67 -93 0
67 -177 0
176 -177 0
-67 -176 177 0
41 -178 0
15 -178 0
-41 -15 178 0
-177 120 0
-178 120 0
177 178 -120 0
16 42 -179 0
-16 42 179 0
16 -42 179 0
-16 -42 -179 0
179 68 -94 0
-179 68 94 0
179 -68 94 0
-179 -68 -94 0
68 -180 0
179 -180 0
-68 -179 180 0
42 -181 0
16 -181 0
-42 -16 181 0
-180 121 0
-181 121 0
180 181 -121 0
17 43 -182 0
-17 43 182 0
17 -43 182 0
-17 -43 -182 0
182 69 -95 0
-182 69 95 0
182 -69 95 0
-182 -69 -95 0
69 -183 0
182 -183 0
-69 -182 183 0
43 -184 0
17 -184 0
-43 -17 184 0
-183 122 0
-184 122 0
183 184 -122 0
18 44 -185 0
-18 44 185 0
18 -44 185 0
-18 -44 -185 0
185 70 -96 0
-185 70 96 0
185 -70 96 0
-185 -70 -96 0
70 -186 0
185 -186 0
-70 -185 186 0
44 -187 0
18 -187 0
-44 -18 187 0
-186 123 0
-187 123 0
186 187 -123 0
19 45 -188 0
-19 45 188 0
19 -45 188 0
-19 -45 -188 0
188 71 -97 0
-188 71 97 0
188 -71 97 0
-188 -71 -97 0
71 -189 0
188 -189 0
-71 -188 189 0
45 -190 0
19 -190 0
-45 -19 190 0
-189 124 0
-190 124 0
189 190 -124 0
20 46 -191 0
-20 46 191 0
20 -46 191 0
-20 -46 -191 0
191 72 -98 0
-191 72 98 0
191 -72 98 0
-191 -72 -98 0
72 -192 0
191 -192 0
-72 -191 192 0
46 -193 0
20 -193 0
-46 -20 193 0
-192 125 0
-193 125 0
192 193 -125 0
21 47 -194 0
-21 47 194 0
21 -47 194 0
-21 -47 -194 0
194 73 -99 0
-194 73 99 0
194 -73 99 0
-194 -73 -99 0
73 -195 0
194 -195 0
-73 -194 195 0
47 -196 0
21 -196 0
-47 -21 196 0
-195 126 0
-196 126 0
195 196 -126 0
22 48 -197 0
-22 48 197 0
22 -48 197 0
-22 -48 -197 0
197 74 -100 0
-197 74 100 0
197 -74 100 0
-197 -74 -100 0
74 -198 0
197 -198 0
-74 -197 198 0
48 -199 0
22 -199 0
-48 -22 199 0
-198 127 0
-199 127 0
198 199 -127 0
23 49 -200 0
-23 49 200 0
23 -49 200 0
-23 -49 -200 0
200 75 -101 0
-200 75 101 0
200 -75 101 0
-200 -75 -101 0
75 -201 0
200 -201 0
-75 -200 201 0
49 -202 0
23 -202 0
-49 -23 202 0
-201 128 0
-202 128 0
201 202 -128 0
24 50 -203 0
-24 50 203 0
24 -50 203 0
-24 -50 -203 0
203 76 -102 0
-203 76 102 0
203 -76 102 0
-203 -76 -102 0
76 -204 0
203 -204 0
-76 -203 204 0
50 -205 0
24 -205 0
-50 -24 205 0
-204 129 0
-205 129 0
204 205 -129 0
25 51 -206 0
-25 51 206 0
25 -51 206 0
-25 -51 -206 0
206 77 -103 0
-206 77 103 0
206 -77 103 0
-206 -77 -103 0
77 -207 0
206 -207 0
-77 -206 207 0
51 -208 0
25 -208 0
-51 -25 208 0
-207 130 0
-208 130 0
207 208 -130 0
26 52 -209 0
-26 52 209 0
26 -52 209 0
-26 -52 -209 0
209 78 -104 0
-209 78 104 0
209 -78 104 0
-209 -78 -104 0
78 -210 0
209 -210 0
-78 -209 210 0
52 -211 0
26 -211 0
-52 -26 211 0
-210 131 0
-211 131 0
210 211 -131 0
